benchmarks_vrp/CMT11/fixed_c_size/CMT11_5.vrp
NAME: CMT11_5
TYPE: CVRP
COMMENT: 1042.11 - Cluster Nr.5
DIMENSION: 16
CAPACITY: 200
EDGE_WEIGHT_TYPE: EUC_2D
NODE_COORD_TYPE: TWOD_COORDS
NODE_COORD_SECTION: 
14 28 33
12 16 33
15 18 31
16 10 45
6 18 41
3 18 30
1 21 39
4 20 40
7 15 36
13 25 35
2 18 40
5 24 36
10 16 38
8 25 37
9 33 38
11 17 35
DEPOT_SECTION: 
16
-1
DEMAND_SECTION: 
13 4
11 10
10 8
15 11
2 15
16 0
12 7
8 13
5 12
1 16
7 8
14 12
4 4
9 13
3 11
6 16
EOF
