benchmarks_vrp/CMT11/fixed_c_size/CMT11_5.tour
NAME: CMT11_5 solution
TYPE: TOUR
TOUR_SECTION:
16 6 2 4 1 8 5 13 9 14 3 15 12 11 7 10 -1
-1
EOF